*SENSE:Maximize
NAME          MODEL
ROWS
 N  OBJ
 G  C0000000
 G  C0000001
 L  C0000002
 G  C0000003
 G  C0000004
 L  C0000005
 G  C0000006
 G  C0000007
 L  C0000008
 G  C0000009
 G  C0000010
 L  C0000011
 L  C0000012
 L  C0000013
 G  C0000014
COLUMNS
    X0000000  OBJ        1.000000000000e+00
    X0000001  C0000012   1.000000000000e+00
    X0000001  C0000013   1.000000000000e+00
    X0000001  C0000014   1.000000000000e+00
    MARK      'MARKER'                 'INTORG'
    X0000002  C0000001  -1.000000000000e+00
    X0000002  C0000002  -1.000000000000e+00
    MARK      'MARKER'                 'INTEND'
    MARK      'MARKER'                 'INTORG'
    X0000003  C0000000  -1.000000000000e+00
    X0000003  C0000002  -1.000000000000e+00
    MARK      'MARKER'                 'INTEND'
    MARK      'MARKER'                 'INTORG'
    X0000004  C0000006  -1.000000000000e+00
    X0000004  C0000008  -1.000000000000e+00
    MARK      'MARKER'                 'INTEND'
    MARK      'MARKER'                 'INTORG'
    X0000006  C0000004  -1.000000000000e+00
    X0000006  C0000005  -1.000000000000e+00
    X0000006  C0000007  -1.000000000000e+00
    X0000006  C0000008  -1.000000000000e+00
    MARK      'MARKER'                 'INTEND'
    MARK      'MARKER'                 'INTORG'
    X0000006  C0000004  -1.000000000000e+00
    X0000006  C0000005  -1.000000000000e+00
    X0000006  C0000007  -1.000000000000e+00
    X0000006  C0000008  -1.000000000000e+00
    MARK      'MARKER'                 'INTEND'
    MARK      'MARKER'                 'INTORG'
    X0000007  C0000010  -1.000000000000e+00
    X0000007  C0000011  -1.000000000000e+00
    MARK      'MARKER'                 'INTEND'
    X0000008  C0000000   1.000000000000e+00
    X0000008  C0000001   1.000000000000e+00
    X0000008  C0000002   1.000000000000e+00
    X0000008  C0000003  -1.000000000000e+00
    X0000008  C0000005  -1.000000000000e+00
    X0000009  C0000003   1.000000000000e+00
    X0000009  C0000004   1.000000000000e+00
    X0000009  C0000005   1.000000000000e+00
    X0000009  C0000012  -1.000000000000e+00
    X0000009  C0000014  -1.000000000000e+00
    X0000010  C0000006   1.000000000000e+00
    X0000010  C0000007   1.000000000000e+00
    X0000010  C0000008   1.000000000000e+00
    X0000010  C0000009  -1.000000000000e+00
    X0000010  C0000011  -1.000000000000e+00
    X0000011  C0000009   1.000000000000e+00
    X0000011  C0000010   1.000000000000e+00
    X0000011  C0000011   1.000000000000e+00
    X0000011  C0000013  -1.000000000000e+00
    X0000011  C0000014  -1.000000000000e+00
RHS
    RHS       C0000000   0.000000000000e+00
    RHS       C0000001   0.000000000000e+00
    RHS       C0000002   0.000000000000e+00
    RHS       C0000003   0.000000000000e+00
    RHS       C0000004   0.000000000000e+00
    RHS       C0000005   0.000000000000e+00
    RHS       C0000006   0.000000000000e+00
    RHS       C0000007   0.000000000000e+00
    RHS       C0000008   0.000000000000e+00
    RHS       C0000009   0.000000000000e+00
    RHS       C0000010   0.000000000000e+00
    RHS       C0000011   0.000000000000e+00
    RHS       C0000012   0.000000000000e+00
    RHS       C0000013   0.000000000000e+00
    RHS       C0000014   1.000000000000e+00
BOUNDS
 FX BND       X0000000   0.000000000000e+00
 UP BND       X0000001   1.000000000000e+00
 BV BND       X0000002
 BV BND       X0000003
 BV BND       X0000004
 BV BND       X0000006
 BV BND       X0000006
 BV BND       X0000007
 UP BND       X0000008   1.000000000000e+00
 UP BND       X0000009   1.000000000000e+00
 UP BND       X0000010   1.000000000000e+00
 UP BND       X0000011   1.000000000000e+00
ENDATA
